# HZ S RI R 50
10000000 -0.8424187327929274 -0.1876483350181581
10001250 -0.8412511094718461 -0.18262677897857604
10002500 -0.8399046813891513 -0.17808024171081982
10003750 -0.8382826035093143 -0.17346834600774727
10005000 -0.8366466263410733 -0.1682786508124112
10006250 -0.8352739509624756 -0.16339476262668914
10007500 -0.833377917200415 -0.15836602650900256
10008750 -0.8317202600023901 -0.15321959771486518
10010000 -0.8296881591657901 -0.14814916477847437
10011250 -0.8276593773871642 -0.1427428362889867
10012500 -0.8256665864106105 -0.13754294201907194
10013750 -0.823332460906495 -0.13207388280551186
10015000 -0.821178646960753 -0.12670793127681718
10016250 -0.8185991465650682 -0.12125541681766493
10017500 -0.8161967810107258 -0.11568609205686878
10018750 -0.8136037442323923 -0.11015348503732722
10020000 -0.8107774943330148 -0.10448495904328657
10021250 -0.8080539149939484 -0.09882555472352696
10022500 -0.8048319377500269 -0.09310518562389465
10023750 -0.801901931075003 -0.087206855304213
10025000 -0.7984562128913186 -0.08157514291559807
10026250 -0.7950916324034029 -0.07560287339822304
10027500 -0.7915519992516528 -0.06969389133412017
10028750 -0.7876961339082237 -0.06358897634563782
10030000 -0.7839436553000153 -0.05754311223235622
10031250 -0.7798044838417623 -0.051541867787705045
10032500 -0.7756443615765363 -0.045293632673341924
10033750 -0.7711411760583742 -0.03921523844444236
10035000 -0.766398467285273 -0.03280302815531245
10036250 -0.7617566147148241 -0.02646552161563632
10037500 -0.7565512687619481 -0.02016629050144383
10038750 -0.7513562049803897 -0.013747585003920202
10040000 -0.7457133913459155 -0.007408565864327242
10041250 -0.7399601803298507 -0.0007770630353454406
10042500 -0.7340494668684324 0.005574970586477033
10043750 -0.7277309138583147 0.012104273574595856
10045000 -0.721270280752126 0.018626616321499565
10046250 -0.7144315592017609 0.02501660467489805
10047500 -0.7074310456384664 0.03167077205718503
10048750 -0.7001356608610211 0.03796815307099179
10050000 -0.692389023913408 0.044439434100856906
10051250 -0.6846689021957204 0.05067789608194658
10052500 -0.6763169608300409 0.05699638061826387
10053750 -0.6679714510279077 0.063278337528679
10055000 -0.6591722081993222 0.06932682935018669
10056250 -0.6500949471907027 0.0754259230665958
10057500 -0.6407125652882972 0.08124514424036736
10058750 -0.6308328766630006 0.08705064055019887
10060000 -0.6209740611042504 0.09277454878783974
10061250 -0.6105501473458282 0.0981804819070778
10062500 -0.5998646858058088 0.10358616249229709
10063750 -0.588773469788672 0.10859104590218917
10065000 -0.5772532855326161 0.11355247346203419
10066250 -0.5656342294796117 0.11829044616006416
10067500 -0.5535017589251439 0.12260001928014733
10068750 -0.5410488374099626 0.1269004583397257
10070000 -0.5282000219268996 0.1306118452222536
10071250 -0.5149250401106064 0.13435021614787715
10072500 -0.5013866715115772 0.13752227383562016
10073750 -0.48731560133444746 0.14036560489160066
10075000 -0.4731153347596304 0.14284699616740595
10076250 -0.45844672880976045 0.14485182394912852
10077500 -0.44341256143473895 0.14658028275641888
10078750 -0.42817827944379894 0.1476439174013081
10080000 -0.4125076730352737 0.14828521940740932
10081250 -0.3967209125332209 0.14827055315185173
10082500 -0.38063938502744726 0.14780953924839743
10083750 -0.3643808938617896 0.14684078606779416
10085000 -0.34787780394329 0.14509523462589125
10086250 -0.33122342064433413 0.1428473985035228
10087500 -0.314479210315379 0.1398649931369211
10088750 -0.2975467349644075 0.1362519960025985
10090000 -0.2807599106169619 0.13193380870848825
10091250 -0.26381123397254297 0.1269439619754814
10092500 -0.24682135555298956 0.12117090687097058
10093750 -0.23010200726094976 0.11465351326599184
10095000 -0.21326499200666044 0.10750622265361903
10096250 -0.19675419364783034 0.09970052619014264
10097500 -0.18046422553906 0.09102469914752277
10098750 -0.16429711555808105 0.08165152290715735
10100000 -0.14829860926367083 0.07145241602173581
10101250 -0.132748735157713 0.06071273164130724
10102500 -0.11778378373409296 0.04924788439087707
10103750 -0.10305075809949854 0.037087230545250836
10105000 -0.08887627401029359 0.0242786989617065
10106250 -0.07516861517895349 0.010757478611872272
10107500 -0.06182842528181703 -0.003300269244749744
10108750 -0.04929596968041587 -0.01802066354784689
10110000 -0.037294632500896804 -0.03321175922738639
10111250 -0.026002309790919692 -0.048951521614690664
10112500 -0.015286940055432446 -0.06509788785917557
10113750 -0.005270512612069872 -0.08174463663423254
10115000 0.003980150319015585 -0.09888179697708742
10116250 0.01253078506332041 -0.11618765467664446
10117500 0.02029802825498103 -0.13390954834328855
10118750 0.027264656135840015 -0.15173293752622624
10120000 0.03330466606933764 -0.16972547953240677
10121250 0.03865497388354426 -0.1877618796513315
10122500 0.04328218171626768 -0.2061102791903197
10123750 0.04718303548461858 -0.22443190033119448
10125000 0.050158895373384464 -0.2425558050409899
10126250 0.05240783448744141 -0.26054967858739647
10127500 0.053889316962307726 -0.27855696702401395
10128750 0.054742287056258165 -0.29632063681470394
10130000 0.05495584584839543 -0.31393653483262607
10131250 0.05427444438366692 -0.3314128829252193
10132500 0.053104389767217805 -0.34848743097177226
10133750 0.05123638850949906 -0.3652647015538054
10135000 0.04890698203547 -0.38174295154916277
10136250 0.04599850563596282 -0.39804119842310803
10137500 0.04239899009237967 -0.4137813590760646
10138750 0.03845458161738911 -0.429379265648847
10140000 0.0340137772277686 -0.44448776221397085
10141250 0.029044726234901234 -0.45918502941426403
10142500 0.023859821165607715 -0.4735595425299001
10143750 0.018206068575059874 -0.4874321658068013
10145000 0.012137706067265894 -0.500943273895717
10146250 0.005761992102331556 -0.5141417772195619
10147500 -0.0008837832795854739 -0.5268867035443966
10148750 -0.007857782264057074 -0.5390862690395442
10150000 -0.014984039068903362 -0.5507663053660801
10151250 -0.022424471107057534 -0.562253000283551
10152500 -0.029997124294415613 -0.5733851066931192
10153750 -0.03770263168028556 -0.5839568321882258
10155000 -0.04559431695563551 -0.5941285819260502
10156250 -0.05367825581823279 -0.6038042440319289
10157500 -0.061854734605510706 -0.6132155702675408
10158750 -0.07016116874778315 -0.6221489063470497
10160000 -0.07836510978705341 -0.6308464263854117
10161250 -0.0866581471481968 -0.6390172155015599
10162500 -0.09512154334660484 -0.6467248734604069
10163750 -0.10355722690039978 -0.6542554408449803
10165000 -0.11191111672791308 -0.6613721733936085
10166250 -0.12026328753861928 -0.6681247290377766
10167500 -0.12854153776161342 -0.6745205234409974
10168750 -0.13687992005987587 -0.6805051341229951
10170000 -0.14523515748091054 -0.6863679580334113
10171250 -0.15344544372373656 -0.6917292937174991
10172500 -0.16154232079245698 -0.6970295197449142
10173750 -0.16959731895938926 -0.701922178633311
10175000 -0.17775099572207761 -0.7067092602863834
10176250 -0.18568353324549094 -0.7111069606397136
10177500 -0.1935574953383548 -0.7152284534599639
10178750 -0.20131836815506893 -0.7192187935891111
10180000 -0.20912408562700435 -0.7229440671846418
10181250 -0.2169356908853756 -0.726376134283407
10182500 -0.22441154684266001 -0.729645509688798
10183750 -0.23195224645006743 -0.7328943829402295
10185000 -0.2395150133025237 -0.7358897005192674
10186250 -0.24679254198196757 -0.7384678397818627
10187500 -0.25415665154003064 -0.7412188976003434
10188750 -0.2612676352905123 -0.7434764863903174
10190000 -0.26839796052527687 -0.7458301603962671
10191250 -0.2751964393015928 -0.7479527089436503
10192500 -0.28217575803941525 -0.749766138978622
10193750 -0.2890928330708366 -0.751735299843951
10195000 -0.2958996347192179 -0.75335658355233
10196250 -0.30264976307397534 -0.7551488816157145
10197500 -0.30896314221718246 -0.7564135050841773
10198750 -0.31545695713047567 -0.7576243193384715
10200000 -0.3216665356240195 -0.7588215583613677
10201250 -0.32794828773138346 -0.7599422538679225
10202500 -0.33412221281791027 -0.7609481877410089
10203750 -0.3400464580586726 -0.7618319998578875
10205000 -0.346111940587464 -0.7625804471282077
10206250 -0.35187699917876303 -0.763379713752356
10207500 -0.357598215977283 -0.7640027339901218
10208750 -0.3632226968772408 -0.7644822937121015
10210000 -0.3687463179161694 -0.7649412688898771
10211250 -0.37428225672814347 -0.7653021927796294
10212500 -0.379696414666054 -0.7656772774793095
10213750 -0.3851070330514391 -0.7658957288939752
10215000 -0.390097047723218 -0.7662471766006194
10216250 -0.3952389959367656 -0.7661113018310376
10217500 -0.400354979882907 -0.7661817676183782
10218750 -0.40526919038546116 -0.7662927603842532
10220000 -0.4101405040425337 -0.7663468189712426
10221250 -0.414852867770038 -0.7663023385088022
10222500 -0.41978612011474153 -0.7658984947905938
10223750 -0.4243640294785701 -0.7658472183871197
10225000 -0.42901280339172015 -0.7655941332582287
10226250 -0.4336059600891604 -0.7653517926612838
10227500 -0.43790578593835494 -0.7650284236855481
10228750 -0.44240453496560356 -0.7646066331268403
10230000 -0.4467377752372814 -0.7643625384831588
10231250 -0.4510813857288031 -0.7638100154048408
10232500 -0.4552919663495445 -0.7634116811865566
10233750 -0.4593134152455414 -0.7629780694021926
10235000 -0.4634856470739727 -0.7624648280596465
10236250 -0.4673841105958724 -0.7620000703004353
10237500 -0.4715193004408776 -0.7612341120288633
10238750 -0.4754957650757424 -0.7608664190905806
10240000 -0.4791929090349128 -0.7600342783259081
10241250 -0.4829512067464938 -0.7595392524660658
10242500 -0.48658756874640025 -0.7588240908838151
10243750 -0.490425394965015 -0.7582179875237407
10245000 -0.4937964640179983 -0.7574422675763016
10246250 -0.4974955325562351 -0.7567980683559243
10247500 -0.5009927117337993 -0.7559775072102479
10248750 -0.5043601580640404 -0.755273346772985
10250000 -0.5079808885795044 -0.7544650887040032
10251250 -0.5110874851371339 -0.7537259471272993
10252500 -0.5144063334657939 -0.752923712993609
10253750 -0.5177361382398556 -0.7522014806859768
10255000 -0.520863768058945 -0.7512630326709088
10256250 -0.5241825170473614 -0.7504825288863547
10257500 -0.5270423992369448 -0.7497034820890354
10258750 -0.5302926857171654 -0.7487868953391712
10260000 -0.5333140644774123 -0.7480358076408493
10261250 -0.5362900098985456 -0.7469714614556252
10262500 -0.5392657187717982 -0.7462657827989594
10263750 -0.5419871972006751 -0.7453318519966237
10265000 -0.5450218233014141 -0.7443125434267878
10266250 -0.5477561923987553 -0.7435060742180809
10267500 -0.550675426185293 -0.7425464004503245
10268750 -0.5532243879892028 -0.7416754372277947
10270000 -0.5560227991687114 -0.7406783504681675
10271250 -0.5587700366656229 -0.7397867373689478
10272500 -0.5613484476199226 -0.7387024618683857
10273750 -0.5640534402360448 -0.7378457538604759
10275000 -0.566478169056687 -0.7369935583688383
10276250 -0.568994057965658 -0.7358912781917603
10277500 -0.5715982805206796 -0.7351121063648726
10278750 -0.5740519957109869 -0.7340732297430759
10280000 -0.5765346158323601 -0.7331469271487948
10281250 -0.5788421862739668 -0.7322426575347031
10282500 -0.5812127731602263 -0.7311209648376622
10283750 -0.5837340957634066 -0.7302355340499814
10285000 -0.5859461702537595 -0.7292849161007746
10286250 -0.5883704428833145 -0.7283592827455919
10287500 -0.590387610398745 -0.7272980569597115
10288750 -0.5927808941400142 -0.7262656145203874
10290000 -0.5950786187192112 -0.7254144251149361
10291250 -0.5971435628199077 -0.724305509411105
10292500 -0.599306166028273 -0.7234595745657212
10293750 -0.6013743378445494 -0.7222911680637628
10295000 -0.603498715887947 -0.7213437036179114
10296250 -0.6055988001449215 -0.7204498603076733
10297500 -0.6076428448040195 -0.7192490963851063
10298750 -0.6098381809487969 -0.7185568051342572
10300000 -0.6116482464154279 -0.7175630149437976
10301250 -0.6137835110926685 -0.7164371728889395
10302500 -0.6156678284233872 -0.7155188765722238
10303750 -0.6177641667910392 -0.7144680555751016
10305000 -0.6195563690221316 -0.713580093870802
10306250 -0.621472110614776 -0.7125480332998771
10307500 -0.6234465067149614 -0.7115346266665213
10308750 -0.6251630910268492 -0.710590227598821
10310000 -0.627145013750383 -0.7096224535671898
10311250 -0.628864956615028 -0.7085558456740981
10312500 -0.6306862109037478 -0.707585660207422
10313750 -0.6324445066878432 -0.7066071011437607
10315000 -0.6341085451494923 -0.7056665871679653
10316250 -0.6359841522363425 -0.7047581346934771
10317500 -0.6375997252967032 -0.7037805401508205
10318750 -0.6394423810411665 -0.7027142468820732
10320000 -0.6410922361182985 -0.7017717971775916
10321250 -0.6427663882576896 -0.7007195105759574
10322500 -0.6444068005938185 -0.6998992621903924
10323750 -0.6459286186958052 -0.6989758743479667
10325000 -0.6477593176091668 -0.6978746199867104
10326250 -0.6492084886660118 -0.6968853855631839
10327500 -0.6508537336505014 -0.695937306962916
10328750 -0.652486731524494 -0.6952422653515407
10330000 -0.6538480881509263 -0.6939421719177236
10331250 -0.6555307867397506 -0.6930937663000885
10332500 -0.6569858887942687 -0.6921593291542775
10333750 -0.658527510296057 -0.6911492130890446
10335000 -0.6600653871936498 -0.6903502476407324
10336250 -0.6614562830254674 -0.6892951095256884
10337500 -0.6630371980810191 -0.6883074511020573
10338750 -0.6644287151902054 -0.6873030891586154
10340000 -0.665984623095747 -0.6863044755285189
10341250 -0.6673398435053702 -0.6855198358061029
10342500 -0.6687232096241303 -0.6844140981834954
10343750 -0.6701938043203325 -0.683655603379907
10345000 -0.6714624194305331 -0.6825900229790852
10346250 -0.6729528843459537 -0.6816562002754412
10347500 -0.6741970147199958 -0.6808412873902093
10348750 -0.6755914862938059 -0.6797352536845361
10350000 -0.6769484211448955 -0.6789931269570383
10351250 -0.6783921725705004 -0.6779298458052302
10352500 -0.6796702801665382 -0.677117506511794
10353750 -0.6807842012118374 -0.6761738782130908
10355000 -0.6821623739050588 -0.6751873754547851
10356250 -0.6834716715805311 -0.6743339824675411
10357500 -0.6848039347504509 -0.6734094263118968
10358750 -0.6861373348501894 -0.6725411674768864
10360000 -0.6871239290656469 -0.6714520863782274
10361250 -0.6885011806278754 -0.6706164387606647
10362500 -0.6896784839591157 -0.6697255383885471
10363750 -0.690938689880195 -0.6688147140643527
10365000 -0.6920772456748522 -0.6680044391098326
10366250 -0.6932591447175867 -0.6669609311399938
10367500 -0.6946697302198857 -0.6661258470334669
10368750 -0.6955961537162182 -0.6652948671027428
10370000 -0.696881523060445 -0.6643452217006789
10371250 -0.6980481335151165 -0.6636252623978538
10372500 -0.69916617389083 -0.6625248655245085
10373750 -0.7003792726032699 -0.6617096100475819
10375000 -0.7013811989215409 -0.6607908678066593
10376250 -0.7026167926932725 -0.6599481877073177
10377500 -0.7035781610408862 -0.6591421665409921
10378750 -0.7047752530948063 -0.6579707394615761
10380000 -0.705986857977867 -0.657267133699757
10381250 -0.7069733646330844 -0.6563077479689962
10382500 -0.7081405783767719 -0.6554988433022542
10383750 -0.7090145272810215 -0.6547318115371592
10385000 -0.7102548876563143 -0.6536166864124866
10386250 -0.7112953021159495 -0.6528915443184456
10387500 -0.7120925801178121 -0.6520570113840709
10388750 -0.7133722010764278 -0.6512371778654962
10390000 -0.7144143711581417 -0.650393517184051
10391250 -0.7155308261791556 -0.6494998278968505
10392500 -0.716321921154106 -0.6485972050399528
10393750 -0.7174451736628736 -0.6477470996282111
10395000 -0.7184935331263449 -0.6469335448765514
10396250 -0.7193372019766531 -0.6460856179301259
10397500 -0.7204591812037892 -0.6452259255755598
10398750 -0.7212368234074251 -0.6443832236703001
10400000 -0.722323242644644 -0.6434885379196332
10401250 -0.7233013633094227 -0.6422453130518717
10402500 -0.7243067942571731 -0.6418451239035842
10403750 -0.7252462917420501 -0.6410329158559269
10405000 -0.7260740835508146 -0.6402312666374668
10406250 -0.7271548777698643 -0.6392613140661972
10407500 -0.7280152763011264 -0.6385058576353205
10408750 -0.7289243416600366 -0.6375375382653486
10410000 -0.7298803248190968 -0.6369545104942496
10411250 -0.7307230318176183 -0.6360248340858019
10412500 -0.7317212483070415 -0.6352020950992809
10413750 -0.7325627487378537 -0.634421330900504
10415000 -0.7336763642376546 -0.6334995121864441
10416250 -0.734379218286109 -0.6327602328001665
10417500 -0.7352202360353868 -0.6318250456817143
10418750 -0.7363041711120651 -0.6310476520403634
10420000 -0.7368878892769247 -0.6302855558948698
10421250 -0.7379549889641637 -0.6293807334295702
10422500 -0.7387562368501898 -0.6286895076462521
10423750 -0.739636919964437 -0.6277202456012194
10425000 -0.740613576336615 -0.6270197322366532
10426250 -0.7411647704091984 -0.6262048544745621
10427500 -0.7422114286097734 -0.6254785402329225
10428750 -0.7430401614741414 -0.624686217036987
10430000 -0.7438351017497743 -0.6237327099671772
10431250 -0.7446102167656354 -0.6230564153814621
10432500 -0.7454320545120765 -0.6221227686438606
10433750 -0.7463371358492207 -0.6215401827725341
10435000 -0.746945743035626 -0.6206052958434766
10436250 -0.7480308606906194 -0.6197068016609293
10437500 -0.7486993122873654 -0.6191867318073375
10438750 -0.7494723910944996 -0.6183028717660402
10440000 -0.7503897053964423 -0.6175568533920698
10441250 -0.7509737641260462 -0.6166415538133142
10442500 -0.7518448418256697 -0.6159268017474855
10443750 -0.7526078633048703 -0.6152058206856641
10445000 -0.7533673249186605 -0.6143059664794994
10446250 -0.7542136036413721 -0.6137816644963797
10447500 -0.754845906716677 -0.6127248449570232
10448750 -0.7557752936567234 -0.6120469328004523
10450000 -0.7564485512103641 -0.6113096662055368
10451250 -0.7572083863445791 -0.6105352569746774
10452500 -0.7579068212351061 -0.6098609763570036
10453750 -0.7586850128788866 -0.6089090962635368
10455000 -0.7594713904278687 -0.6082330443978045
10456250 -0.7600468692614926 -0.6074746172227175
10457500 -0.7609837304682928 -0.6066478667872899
10458750 -0.7616092078045066 -0.6060646905362954
10460000 -0.7623732536899507 -0.6051150740566281
10461250 -0.7631179923618617 -0.6045024004617283
10462500 -0.763810142424037 -0.6035475307338344
10463750 -0.7646364801459806 -0.6029793879741641
10465000 -0.7651500855030144 -0.6022040001336018
10466250 -0.7659384468404425 -0.6012834961025387
10467500 -0.766626774917979 -0.6007076498284297
10468750 -0.7673459728326473 -0.5998174245121727
10470000 -0.7681365610606171 -0.5992188961298536
10471250 -0.7685957803138946 -0.5984392899381393
10472500 -0.7694077840576315 -0.5975298933338486
10473750 -0.7700559361027254 -0.5968755184276171
10475000 -0.7707383541577958 -0.5961924290078187
10476250 -0.7714550080253039 -0.5954260138773954
10477500 -0.7720713926680486 -0.5946618488647745
10478750 -0.7728430096978427 -0.5938947490636606
10480000 -0.7733297050005825 -0.5932292881376741
10481250 -0.7741746474907372 -0.5924389647969847
10482500 -0.7747159226835805 -0.5917753836003963
10483750 -0.7753046687237685 -0.5909814832956641
10485000 -0.7761209202887803 -0.5902429468690772
10486250 -0.7765823781728562 -0.5895723563131381
10487500 -0.7774482552601911 -0.5887367911500022
10488750 -0.7779270845943989 -0.58817339981151
10490000 -0.7785874399279767 -0.5872877965608926
10491250 -0.7793569619131633 -0.5866816250852792
10492500 -0.7798226121274446 -0.5859330770684413
10493750 -0.7805251767315167 -0.5851957422151084
10495000 -0.7810344622763805 -0.5845758926336628
10496250 -0.7817526803245115 -0.5836864164911421
10497500 -0.7824256763915824 -0.5831545943094022
10498750 -0.7829733431002148 -0.5823268162995806
10500000 -0.7836711365971343 -0.5816544405568943
